<number of tasks>
20

<cycle time>
1000

<order strength>
0,232


<task times>
1 296
2 196
3 199
4 117
5 116
6 144
7 207
8 215
9 44
10 140
11 267
12 37
13 53
14 231
15 288
16 138
17 210
18 170
19 41
20 347

<precedence relations>
1,5
2,6
2,7
4,8
5,9
6,10
7,11
7,12
7,13
7,14
9,17
10,17
11,15
12,16
14,18
15,19
16,19
17,20

<end>
